; benchmark generated from python API
(set-info :status unknown)
(declare-fun x_month () Int)
(declare-fun x_day () Int)
(declare-fun x_year () Int)
(declare-fun y_month () Int)
(declare-fun y_day () Int)
(declare-fun y_year () Int)
(assert
 (>= x_month 1))
(assert
 (<= x_month 12))
(assert
 (>= x_day 1))
(assert
 (<= x_day 31))
(assert
 (let (($x188 (<= x_day 28)))
 (let (($x103 (<= x_day 29)))
 (let (($x737 (= (mod x_year 400) 0)))
 (let (($x594 (= (mod x_year 4) 0)))
 (let (($x552 (ite (or (and $x594 (and (distinct (mod x_year 100) 0) true)) $x737) $x103 $x188)))
 (let (($x1019 (= x_month 2)))
 (ite $x1019 $x552 true))))))))
(assert
 (let (($x1022 (<= x_day 30)))
 (let (($x517 (= x_month 6)))
 (let (($x234 (or (= x_month 4) $x517 (= x_month 9) (= x_month 11))))
 (ite $x234 $x1022 true)))))
(assert
 (>= y_month 1))
(assert
 (<= y_month 12))
(assert
 (>= y_day 1))
(assert
 (<= y_day 31))
(assert
 (let (($x231 (<= y_day 28)))
 (let (($x620 (<= y_day 29)))
 (let (($x370 (= (mod y_year 400) 0)))
 (let (($x165 (= (mod y_year 4) 0)))
 (let (($x213 (ite (or (and $x165 (and (distinct (mod y_year 100) 0) true)) $x370) $x620 $x231)))
 (let (($x160 (= y_month 2)))
 (ite $x160 $x213 true))))))))
(assert
 (let (($x174 (<= y_day 30)))
 (let (($x648 (= y_month 6)))
 (let (($x543 (or (= y_month 4) $x648 (= y_month 9) (= y_month 11))))
 (ite $x543 $x174 true)))))
(assert
 (let (($x253 (= x_year 2023)))
 (let (($x167 (and $x253 (or (> x_month 6) (and (= x_month 6) (>= x_day 1))))))
 (or (> x_year 2023) $x167))))
(assert
 (let (($x211 (or (= (+ (mod (- (+ x_month 1) 1) 12) 1) 4) (= (+ (mod (- (+ x_month 1) 1) 12) 1) 6) (= (+ (mod (- (+ x_month 1) 1) 12) 1) 9) (= (+ (mod (- (+ x_month 1) 1) 12) 1) 11))))
 (let ((?x470 (+ (+ x_year 0) (div (- (+ x_month 1) 1) 12))))
 (let (($x359 (or (and (= (mod ?x470 4) 0) (and (distinct (mod ?x470 100) 0) true)) (= (mod ?x470 400) 0))))
 (let ((?x623 (ite (= (+ (mod (- (+ x_month 1) 1) 12) 1) 2) (ite $x359 29 28) (ite $x211 30 31))))
 (let ((?x362 (ite (< x_day 1) 1 (ite (> x_day ?x623) ?x623 x_day))))
 (let ((?x355 (ite (< ?x362 1) 1 (ite (> ?x362 ?x623) ?x623 ?x362))))
 (let ((?x588 (ite (< 2 (+ (mod (- (+ x_month 1) 1) 12) 1)) (- 3) 9)))
 (let ((?x530 (+ (mod (- (+ x_month 1) 1) 12) 1)))
 (let ((?x602 (- (+ ?x470 (* (div 0 146097) 400)) (ite (>= 2 ?x530) 1 0))))
 (let ((?x607 (ite (<= 0 ?x602) (div ?x602 400) (div (- ?x602 399) 400))))
 (let ((?x537 (- ?x602 (* ?x607 400))))
 (let ((?x555 (+ (- (+ (* ?x537 365) (div ?x537 4)) (div ?x537 100)) (- (+ (div (+ (* 153 (+ ?x530 ?x588)) 2) 5) ?x355) 1))))
 (let ((?x929 (+ (+ (* ?x607 146097) ?x555) (mod 0 146097))))
 (let ((?x315 (ite (<= 0 ?x929) (div ?x929 146097) (div (- ?x929 146096) 146097))))
 (let ((?x201 (- ?x929 (* ?x315 146097))))
 (let ((?x1426 (div (+ (* 400 ?x201) 591) 146097)))
 (let ((?x1451 (- ?x201 (- (+ (* 365 ?x1426) (div ?x1426 4)) (div ?x1426 100)))))
 (let ((?x130 (div (+ (* 5 ?x1451) 2) 153)))
 (let (($x304 (= 0 0)))
 (let ((?x399 (ite $x304 ?x355 (+ (- ?x1451 (div (+ (* 153 ?x130) 2) 5)) 1))))
 (let ((?x525 (+ (ite $x304 ?x530 (- (+ ?x130 3) (ite (> 10 ?x130) 0 12))) 0)))
 (let ((?x1139 (- ?x525 1)))
 (let ((?x545 (+ (mod ?x1139 12) 1)))
 (let ((?x1201 (ite (or (= ?x545 4) (= ?x545 6) (= ?x545 9) (= ?x545 11)) 30 31)))
 (let ((?x818 (ite (>= 2 (- (+ ?x130 3) (ite (> 10 ?x130) 0 12))) 1 0)))
 (let ((?x461 (+ (+ (ite $x304 ?x470 (+ (+ ?x1426 (* ?x315 400)) ?x818)) 0) (div ?x1139 12))))
 (let (($x660 (or (and (= (mod ?x461 4) 0) (and (distinct (mod ?x461 100) 0) true)) (= (mod ?x461 400) 0))))
 (let ((?x518 (ite (= ?x545 2) (ite $x660 29 28) ?x1201)))
 (let ((?x309 (ite (< ?x399 1) 1 (ite (> ?x399 ?x518) ?x518 ?x399))))
 (let ((?x672 (ite (< ?x309 1) 1 (ite (> ?x309 ?x518) ?x518 ?x309))))
 (let ((?x830 (div (+ (* 153 (+ ?x545 (ite (< 2 ?x545) (- 3) 9))) 2) 5)))
 (let ((?x1456 (- (+ ?x461 (* (div 15 146097) 400)) (ite (>= 2 ?x545) 1 0))))
 (let ((?x1092 (ite (<= 0 ?x1456) (div ?x1456 400) (div (- ?x1456 399) 400))))
 (let ((?x1462 (- ?x1456 (* ?x1092 400))))
 (let ((?x670 (+ (- (+ (* ?x1462 365) (div ?x1462 4)) (div ?x1462 100)) (- (+ ?x830 ?x672) 1))))
 (let ((?x307 (+ (+ (* ?x1092 146097) ?x670) (mod 15 146097))))
 (let ((?x128 (ite (<= 0 ?x307) (div ?x307 146097) (div (- ?x307 146096) 146097))))
 (let ((?x420 (- ?x307 (* ?x128 146097))))
 (let ((?x613 (div (+ (* 400 ?x420) 591) 146097)))
 (let ((?x1477 (- ?x420 (- (+ (* 365 ?x613) (div ?x613 4)) (div ?x613 100)))))
 (let ((?x1008 (div (+ (* 5 ?x1477) 2) 153)))
 (let ((?x366 (+ (- ?x1477 (div (+ (* 153 ?x1008) 2) 5)) 1)))
 (let (($x649 (= 0 15)))
 (let (($x135 (= (ite $x649 ?x545 (- (+ ?x1008 3) (ite (> 10 ?x1008) 0 12))) y_month)))
 (let ((?x993 (ite (>= 2 (- (+ ?x1008 3) (ite (> 10 ?x1008) 0 12))) 1 0)))
 (let ((?x1265 (+ (+ ?x613 (* ?x128 400)) ?x993)))
 (and (= (ite $x649 ?x461 ?x1265) y_year) $x135 (= (ite $x649 ?x672 ?x366) y_day)))))))))))))))))))))))))))))))))))))))))))))))))
(assert
 (let (($x721 (= y_year 2023)))
(let (($x129 (and $x721 (or (> y_month 6) (and (= y_month 6) (>= y_day 1))))))
(or (> y_year 2023) $x129))))
(check-sat)
